CMPL model generation - running

CMPL version: 1.11.0
Authors: Thomas Schleiff, Mike Steglich
Distributed under the GPLv3 

create model instance ...
write model instance ...
CMPL model generation - finished

Solver - running


Welcome to IBM(R) ILOG(R) CPLEX(R) Interactive Optimizer 12.7.1.0
  with Simplex, Mixed Integer & Barrier Optimizers
5725-A06 5725-A29 5724-Y48 5724-Y49 5724-Y54 5724-Y55 5655-Y21
Copyright IBM Corp. 1988, 2017.  All Rights Reserved.

Type 'help' for a list of available commands.
Type 'help' followed by a command name for more
information on commands.

CPLEX> Specified objective sense: MINIMIZE
Selected objective  name:  line[1]
Selected RHS        name:  RHS
Selected bound      name:  BOUND
Problem '/tmp/cmpl.T24324.mps' read.
Read time = 0.05 sec. (8.17 ticks)
CPLEX> CPXPARAM_Read_APIEncoding                        "UTF-8"
Tried aggregator 3 times.
MIP Presolve eliminated 19172 rows and 30582 columns.
MIP Presolve modified 340 coefficients.
Aggregator did 667 substitutions.
Reduced MIP has 2516 rows, 3344 columns, and 9744 nonzeros.
Reduced MIP has 3176 binaries, 0 generals, 0 SOSs, and 0 indicators.
Presolve time = 0.05 sec. (40.58 ticks)
Found incumbent of value 1087.220984 after 0.09 sec. (63.77 ticks)
Probing fixed 13 vars, tightened 0 bounds.
Probing time = 0.01 sec. (4.38 ticks)
Tried aggregator 1 time.
MIP Presolve eliminated 0 rows and 13 columns.
MIP Presolve modified 65 coefficients.
Reduced MIP has 2516 rows, 3331 columns, and 9718 nonzeros.
Reduced MIP has 3331 binaries, 0 generals, 0 SOSs, and 0 indicators.
Presolve time = 0.01 sec. (8.27 ticks)
Probing time = 0.01 sec. (2.69 ticks)
Clique table members: 6043.
MIP emphasis: balance optimality and feasibility.
MIP search method: dynamic search.
Parallel mode: none, using 1 thread.
Root relaxation solution time = 0.01 sec. (5.83 ticks)

        Nodes                                         Cuts/
   Node  Left     Objective  IInf  Best Integer    Best Bound    ItCnt     Gap

*     0+    0                         1087.2210      -32.2480           102.97%
      0     0      246.4623     6     1087.2210      246.4623      207   77.33%
*     0+    0                          250.5483      246.4623             1.63%
*     0+    0                          246.6338      246.4623             0.07%
      0     0      246.5836     2      246.6338      Cuts: 13      212    0.02%
*     0+    0                          246.5962      246.5836             0.01%

GUB cover cuts applied:  1
Clique cuts applied:  1
Cover cuts applied:  7
Gomory fractional cuts applied:  4

Root node processing (before b&c):
  Real time             =    0.16 sec. (107.87 ticks)
Sequential b&c:
  Real time             =    0.00 sec. (0.00 ticks)
                          ------------
Total (root+branch&cut) =    0.16 sec. (107.87 ticks)

Solution pool: 4 solutions saved.

MIP - Integer optimal, tolerance (0.0001/1e-06):  Objective =  2.4659615400e+02
Current MIP best bound =  2.4658357500e+02 (gap = 0.012579, 0.01%)
Solution time =    0.16 sec.  Iterations = 212  Nodes = 0 (1)
Deterministic time = 107.97 ticks  (670.52 ticks/sec)

CPLEX> Incumbent solution written to file '/tmp/cmpl.T24324.gsol'.
CPLEX> 
CMPL: Time used for model generation: 0 seconds
CMPL: Time used for solving the model: 1 seconds


Solution written to ASCII file: results/output_generated_conf_0.6/2016-11-07-4/fair-nonlinear.sol

Solver - finished
